NAME : XML100_3124_23
DIMENSION : 101
NB_CLUSTERS : 28
CLUSTERING_ALG : DBSCAN
CLUSTERING_PARAMS : eps(52), minSamples(3)
CLUSTERS
1 0
2 4 47 77 79 81 84
3 5 26 27 43 52 59 99
4 6 15 20 23 80 95
5 11 61 78 92
6 10 14 16 37 38 73
7 17 19 39 53 90
8 28 49 66 67 88 100
9 33 41 46
10 42 45 55 58
11 62 68 93 94
12 3 7 76 87
13 1 25 32 34 44 64 86
14 21 35 69
15 70 91
16 29 57
17 36 40 63
18 74 83 97
19 12 72
20 50 60
21 56 96
22 85 89
23 2 18 30 71 75 82
24 9 48
25 22 24 54
26 31 65
27 8 13
28 51 98
EOF